1000 3100
1 2 3 4 5 6 7 8 9 10 11 12 13 14 15 16 17 18 19 20 21 22 23
0 24 25 26 27 28 29 30 31 32 33 34 35 36 37 38 39 40 41 42 43 44 45 46 47 48 49 50 51 52 53 54 55 56 57 58 59 60
0 61 62 63 64 65 66 67 68 69 70 71 72 73 74 75 76 77 78 79 80 81 82 83 84 85 86 87 88 89 90 91 92 93 94 95 96 97 98 99 100 101 102 103 104 105 106 107 108 109 110 111 112 113 114 115 116 117 118 119 120 121 122 123 124 125 126 127 128 129 130 131 132 133 134 135 136 137 138 139 140 141 142 143
0 20 22 144 145 146 147 148 149 150 151 152 153
0 154 155 156 157 158 159 160 161 162 163 164 165 166 167 168 169 170 171 172 173 174
0 7 8 15 18 147 175 176 177 178 179 180 181 182 183 184 185 186 187 188 189
0 7 12 19 190 191 192 193 194 195 196 197 198 199 200 201 202 203 204 205 206 207 208 209 210 211 212 213 214 215 216 217 218 219 220 221 222 223 224 225 226 227 228 229 230 231 232 233 234 235 236 237 238 239 240 241 242 243 244 245 246 247 248 249 250 251 252 253 254 255 256 257 258 259 260 261 262 263 264 265 266 267 268 269 270 271 272 273 274 275 276 277 278 279 280 281 282 283 284 285 286 287 288 289 290 291 292 293 294 295 296 297 298 299 300 301 302 303 304 305 306 307 308 309 310 311 312 313 314 315 316 317 318 319 320 321 322 323 324 325 326 327 328 329 330 331 332 333 334 335 336 337 338 339 340 341 342 343 344 345 346 347 348 349 350 351 352 353 354 355 356 357 358 359 360 361 362 363 364 365 366 367 368 369 370 371 372 373 374 375 376 377 378 379 380 381 382 383 384 385 386 387 388 389 390 391 392 393 394 395 396 397 398 399 400 401 402 403 404 405 406 407 408 409 410 411 412 413 414 415 416 417 418 419 420 421 422 423 424 425 426 427 428 429 430 431 432 433 434 435 436 437 438 439 440 441 442 443 444 445 446 447 448 449 450 451 452 453 454 455 456 457 458 459 460 461 462 463 464 465 466 467 468 469 470 471 472 473 474 475 476 477 478 479 480 481 482 483 484 485 486 487 488 489 490 491 492 493 494 495 496 497 498 499 500 501 502 503 504 505 506 507 508 509 510 511 512 513 514 515 516 517 518 519 520 521 522 523 524 525 526 527 528 529 530 531 532 533 534 535 536 537 538 539 540 541 542 543 544 545 546 547 548 549 550 551 552 553 554 555 556 557 558 559 560 561 562 563 564 565 566 567 568 569 570 571 572 573 574 575 576 577 578 579 580 581 582 583 584 585 586 587 588 589 590 591 592 593 594 595 596 597 598 599 600 601 602 603 604 605 606 607 608 609 610 611 612 613 614 615 616 617 618 619 620 621 622 623 624 625 626 627 628 629 630 631 632 633 634 635 636 637 638 639 640 641 642 643 644 645 646 647 648 649 650 651 652 653 654 655 656 657 658 659 660 661 662 663 664 665 666 667 668 669 670 671 672 673 674 675 676 677 678 679 680 681 682 683 684 685 686 687 688 689 690 691 692 693 694 695 696 697 698 699 700 701 702 703 704 705 706 707 708 709 710 711 712 713 714 715 716 717 718 719 720 721 722 723 724 725 726 727 728 729 730 731 732 733 734 735 736 737 738 739 740 741 742 743 744 745 746 747 748 749 750 751 752 753 754 755 756 757 758 759 760 761 762 763 764 765 766 767 768 769 770 771 772 773 774 775 776 777 778 779 780 781 782 783 784 785 786 787 788 789 790 791 792 793 794 795 796 797 798 799 800 801
0 5 6 8 9 15 18 22 146 147 153 175 183 414 419 694 802 803 804 805 806 807 808 809 810 811 812 813 814 815 816 817 818 819 820 821 822 823 824 825 826 827 828 829 830 831 832 833 834 835 836 837 838 839 840 841 842 843 844 845 846 847 848 849 850 851
0 5 7 9 15 808 809 815 819 820 828 832 833 836 845 846 852 853 854 855 856 857 858 859 860 861 862 863 864 865 866 867 868 869
0 7 8 15 152 183 815 845 870 871 872 873 874 875 876 877 878 879
0 880 881 882 883 884 885 886 887 888 889 890 891 892 893 894 895 896 897 898 899 900 901 902 903 904 905 906 907 908 909 910 911 912 913 914 915 916 917 918 919 920 921 922 923 924 925 926 927 928 929 930 931 932 933 934 935 936 937 938 939 940 941 942 943 944 945 946 947 948 949 950 951 952 953 954 955 956 957 958 959 960 961 962 963 964 965 966 967 968 969 970 971 972 973 974 975 976 977 978 979 980 981 982 983 984 985 986 987 988 989 990 991 992 993 994 995 996 997 998 999
0
0 6 19 22 190 191 193 194 195 197 198 199 200 201 202 204 205 206 208 209 210 212 213 214 215 216 218 219 220 221 222 223 224 225 226 227 229 232 234 237 238 239 240 242 244 245 246 248 249 250 252 255 257 258 261 262 263 265 267 268 269 270 271 272 273 274 276 277 278 280 281 282 283 284 286 287 288 289 291 293 294 296 297 298 299 301 302 304 306 307 308 309 310 311 312 315 317 318 319 320 321 322 323 324 325 327 328 329 331 332 334 335 336 337 340 341 342 343 345 346 347 348 349 350 351 353 354 355 356 358 359 360 361 362 364 365 366 367 368 369 371 372 373 375 376 378 380 381 382 383 384 386 387 389 390 391 392 393 394 395 397 398 399 400 401 402 404 405 406 407 408 410 411 414 415 416 417 420 422 423 424 425 426 427 428 429 431 432 433 434 436 437 438 439 441 442 443 444 445 446 447 449 452 454 455 457 460 461 462 465 467 468 470 471 472 473 475 476 477 479 480 486 488 490 491 493 494 495 496 497 498 502 503 504 506 507 509 510 511 512 513 514 515 516 518 519 520 521 523 524 525 526 527 528 529 530 531 533 535 536 538 540 541 542 543 545 547 548 549 551 552 553 555 556 557 559 560 562 563 564 566 567 569 570 571 573 576 577 578 579 580 581 583 584 585 586 587 588 590 592 593 594 597 598 599 600 601 603 606 607 610 611 612 613 616 617 618 620 622 623 625 627 628 630 631 633 634 635 636 637 639 640 641 642 643 644 645 646 648 649 653 654 656 657 658 660 661 663 665 666 667 669 671 672 673 674 676 677 678 679 680 684 686 688 690 691 692 693 694 695 696 697 698 699 700 701 702 703 705 706 707 708 709 710 712 714 717 719 722 723 724 725 729 730 733 734 735 736 737 738 739 740 741 743 745 746 748 750 753 754 755 756 757 758 759 760 761 763 764 766 767 770 771 773 774 775 776 777 778 779 780 781 782 783 784 785 786 788 789 790 791 792 793 794 796 797 799 800
0 937
0 20 21 848
0 5 7 8 9 152 175 177 819 820 832 834 836 870
0 834
0
0 5 7 150 151 178 187 188 694 817 854 875
0 6 12 22 93 190 191 193 197 199 201 204 205 206 207 208 209 210 215 216 218 219 220 221 223 224 225 226 227 228 229 231 232 233 234 235 237 238 239 241 242 243 244 246 247 248 249 250 251 252 255 257 258 260 261 263 264 267 268 269 270 271 272 273 274 275 277 278 279 280 281 282 283 284 285 286 287 288 289 290 291 293 294 295 298 299 300 301 302 304 305 306 307 308 309 310 311 312 313 314 315 317 318 319 320 321 322 323 324 325 327 328 329 331 332 335 336 337 340 341 342 345 348 349 350 351 353 356 357 358 359 360 361 362 364 365 366 367 368 369 370 371 372 373 376 377 378 379 380 381 382 383 384 385 390 391 392 393 394 397 398 399 401 402 403 404 405 406 407 409 410 411 412 416 417 419 420 423 424 425 426 427 428 429 431 432 433 434 435 436 437 438 439 440 441 442 443 444 446 447 448 449 450 452 453 454 455 457 458 459 460 461 462 465 466 467 468 469 470 471 472 473 474 475 476 477 479 480 482 483 485 486 487 488 490 491 493 495 496 497 498 501 503 504 507 511 512 514 515 516 517 518 519 520 521 523 524 525 527 529 530 531 532 533 534 535 536 537 538 539 541 542 543 545 547 548 549 550 552 553 554 556 557 558 559 560 561 562 563 564 566 567 568 569 570 571 573 576 577 579 580 581 582 583 585 586 587 588 589 590 591 593 595 596 597 600 601 602 603 604 605 606 607 608 610 611 612 613 614 616 617 619 620 621 622 623 625 626 627 629 630 631 633 634 635 636 637 638 639 640 641 642 643 644 645 648 649 651 653 654 655 656 657 658 660 663 665 666 667 669 670 672 673 674 675 677 678 679 680 681 682 684 686 688 690 691 692 694 695 696 697 698 700 701 702 703 706 707 708 711 712 713 715 717 719 722 723 724 725 727 729 730 731 732 733 734 735 736 738 741 742 743 744 745 746 748 750 751 753 754 755 756 757 759 761 762 763 764 766 767 768 769 770 771 772 773 774 775 776 777 778 779 780 781 783 784 785 786 789 790 791 792 793 794 799 800 801
0 3 14 21 151
0 14 20 151
0 3 7 12 19 146 147 148 151 152 153 188 369 854 870
0
1
1
1 43 883 975
1 43
1
1
1
1
1 37 55
1
1
1
1
1 32
1
1
1
1
1
1 26 27
1
1 128
1
1
1
1 54
1 100
1
1
1
1 49
1 32 79
1 58
1
1 56
1
1
2
2
2
2
2
2
2
2
2
2
2 87
2
2
2 831
2
2
2
2 109 127 223 481
2 55
2
2 505
2
2 126
2 158
2
2
2 71 180
2
2 122
2
2
2 834
2 19
2
2 957
2
2 278
2 163
2
2 50
2
2
2
2
2
2
2
2
2 78 118 121
2
2
2
2 140
2
2
2
2
2 109 309
2
2
2 109
2 89 124
2
2 122
2
2 83
2 78
2 45
2
2
2 379
2 506
2
2
2 628 884 885 928 960 963 969
2
2
2
2 798
2 113
2
2
2 487 747
3 147 148 152 854 870
3 150 178
3 7 22 147 148 151 152 153 188 809 817 849 854 861 870
3 5 7 22 144 146 148 149 151 152 153 183 187 188 306 809 817 845 849 854 861 865 870
3 22 144 146 147 149 153
3 147 148 152
3 18 145
3 18 20 21 22 146 147 152 187 188 306 809 817 845 849 854 865 870
3 9 15 22 144 146 147 149 151 175 183 188 809 817 834 854 865 870
3 7 22 146 147 148
4 157 159 160 164 173
4 167 655 703
4 163
4 154 159 160 164 173
4 84
4 154 157 160 164 173
4 154 157 159 164 173
4 165 168 170 172 174
4
4 98 156
4 154 157 159 160 173
4 161 166 168 169 170 172 174
4 165 169 172 174 379
4 155
4 161 165 172 174 379
4 165 166 170 174
4 161 165 169 174
4
4 161 165 166 168 174 379
4 154 157 159 160 164
4 161 165 166 168 169 170 172 379 451
5 7 15 152 345 825 834 835 854
5 178 188 854 861
5 15
5 18 145 176 181 187 861
5
5 87 184 976
5 178 183 633 854 861
5
5 7 9 147 152 181 187 188 809 817 849 854 865 870
5 180
5 849 941
5
5 18 147 151 178 183 188 817 854 865
5 18 22 146 147 151 152 176 183 187 809 817 854 861 865 870
5
6 12 19 543
6 12 19 356
6
6 12 19 221 397 529 647
6 12 584
6 12
6 720
6 12 19
6 12
6 12 19 475 743
6 12
6 12 19 473 605 688
6 12
6 223 267 333 418 529 567 601 647 699 724 796
6 12 19 609
6 12 19
6 12 19 445
6 19
6 12 19 469 573
6 12 19 533
6 12 19 498
6 236 625
6 12
6 12 305 585 703
6 12
6 12 19
6 12 19
6 380 556 567 766 774
6 12 19
6 12 19 375 562
6 12 19 680
6 12 19 193 435 524 703
6 12
6 12 19 78 203 519 524 573 603 669 699 703 726 831
6 12 19 717
6 12 19
6 12 19
6 12 19
6 19
6 12 19 524
6 544 575
6 19
6 12 19 437 603
6 19
6 12 19 514
6 19 435 458 532 561 713
6 211 435 625
6 12 19 660
6 12 19 246 301 686
6 12 19 726
6 12 506
6 19 458
6 12 19 390
6 19 528
6 12 19 287 417 439
6 12 307 310 413 797
6 12 19 238 301 448 686
6 19 426 484
6 12 19 258 356 469
6 12 19 303 410 538 919
6 12 19
6 19 337
6 12 19
6
6 453 693 754
6 12 19 316 340 524 703
6
6 12 19 458 477 780 844
6 12 19 248 435 458
6 410
6 19 391 435 458
6 12 19 380 451
6 12 625
6 12 19 299 305 443 703
6 19
6 12
6
6 12 19 203 703 726
6 12 19
6 12 19 697
6 12 19 299
6 12 19 725
6 12 19
6 12 19
6 12 19
6 19 281 300 435 452 668 772
6 12 716 836
6 12 19 331
6 12 19 97 409
6 19 313 618
6 12 19
6 12 19 275 300 668
6 12 19
6 12 19 581
6 12 19 640 701
6 19 288 290 404
6 12 19
6 12 19 244 417 439
6 12 19 285 318
6 12 19 703
6 19 285
6 12 19 360
6
6 12 19 346 457 647 726
6 12 19
6 19
6 12 512
6 12
6 12 19
6 12 19 263 270 458 726 743
6 19 275 281 369 435 452 458 579 754 772
6 12 19 238 246 448 686
6 12 19
6 249 410 538 731
6 12 19 416 493 524 651
6 19 213 263 496 647 703 712 724
6 12 19 147 151 845 849 854 865
6 12 19 245 310 413 455 528 583 797
6 12 19 340 703
6 12 19 118 703
6 12 19 245 307 413 797
6 12 19
6 12 19 356
6 19 279 511 527
6 19
6 12 19 480 603 631
6 255
6 12 19
6 12 19 288 619 774
6 12 19
6 12 19 323 590 703 775
6 12 19 337
6 12 19 341 789
6 12 19 320 502 590
6 12 19
6 12 19 399
6
6 12 19 524 562 743
6 12 19 361 467 684
6 12 19
6 338 343 513 578 598 599 695
6 12 19 277
6 12 19
6 203
6 12
6 12 19 368 449 770
6 12 19 458 475 583 743
6 12 19 251 321
6 330 695 732
6
6 12 19 255 308 418 458 475 483 569 585 629 774
6 12 19 322
6 12 19 524
6 12 330 513 578 598 599 643 694
6
6 12 19 175 398 589 833
6 12 293 682
6 12
6 12 19
6 12 19 396 807 859
6 12 19 604
6 12 19 579
6
6 12 19 369 447 512
6 12
6 12 446 685
6 12 19 191 248 312 438 475 524 532 561 703
6 19
6 12 19
6 12 19 626
6 12 19 291 776
6 12 19 328 684
6 12 19 711
6 568 747 765
6 12 19 616
6 12 19
6 12 19 435 754
6 12 19 702
6 12 19 335 449 726 770
6 12 19 22 300 353 447 496 562 590 747
6 19
6 12 19 435 458 569 683
6 12 19 543
6 12 19 524
6
6 12 219
6 12 19
6 19
6 12 19
6 19 131 166 168 172 174
6 12 19 217 261 556 567 766 774
6 12 19
6 12 19 396
6 12 19 701
6 12 19 574 691 757 766
6 19 762
6 12
6 12
6 649
6 12 828 833
6 12 19 242
6 12 19 260 435 458
6 12 19 773
6 12 19
6 12 19
6 12 833
6 349 382 437 603 658 730 843 859
6 12 19 193 529 703 726
6 12 19 345 589 697
6 12 19 325
6 12 701
6 12 19 452 740
6 12 19 767
6 19
6 12 19 285
6 12 19
6 12 19
6 12 19 524 703
6 12
6 19 278
6 12 19 249 259 303 538
6 12 19 596
6 19 533
6 245 307 310 528
6 7 12 470 682
6 12
6 12 19 304
6 12 19 244 287 439
6 203 340 458 548 567 699 703
6 7 19 823
6 12 19
6
6 12
6 12 19
6 12 19 653 761
6 12 19 601
6 12 19 247
6 12 19 666
6 12 19
6 12 19
6 573 583
6 12 19 524 527
6 12 19
6 12 19
6 12 19 675
6 19 221 235 236 258 260 275 300 366 371 391 458 524 532 537 561 569 601 625 703 723 754
6 12 19
6 12 19 232 396 480 603
6 12 19 356 524 703
6 12 19 244 287 417
6 19 759
6 12 19 458
6 12 19
6 12 19 263
6 12 19 571
6 12 206
6 12 19 355
6 12 19 353 369 512
6 19 246 301
6 12 19 335 368 726 770
6 19
6 174 261
6 12 19 275 300 401
6 19 254 524 693
6 12 19 703 726
6 12 19 307 797
6
6 12 19 293
6 19 235 241 257 258 260 299 300 336 340 371 391 418 435 441 475 523 524 548 549 567 569 572 585 601 602 615 619 629 660 703 730 774
6 19
6 12 19 498
6 12 19 462 678
6 12 19 461 678
6 560 650
6 649
6 12 19 480 610 677
6 19 517 619 690
6 12 19 328 684
6 12 19
6 19 208 248 478
6 12 19 414 547 682
6 12 19 664 703 805
6 12 19 703 800
6 12 19 201 561 605 688
6 19
6 12 19 199 336 340 356 458 556 703 726 732
6 12 19
6 12 19 257 780
6 469 655 703
6 12 19 703
6 12 19 315 437 465 603 610 631 677 807
6 78 649
6 19
6 19 340 703
6 247
6 19
6 12 19
6 19 143 532 601 703
6 12 19 678 712
6 703
6 12 19
6 12 19
6
6 12 19 304 651 774
6 12
6 12 19 532 677 703 761 783
6 12 19 305 369 514 625
6 12 19
6 12 19 210 460 524
6
6
6 19
6 12 323 597
6 12 19
6 12 19 663 726
6 81 726
6 12 132 240
6 12 19
6 649
6 12 721
6 12
6 12 19 313 527
6 12 19 296 353 447 545
6 12 330 343 578 598 599 643 694
6 12 19 234 496
6 12 19 801
6 12 19
6 19 466 619 690
6 12 19 573 698
6 12 19 223
6 12 19
6 12 19 800
6
6 12 19 458
6 12 19 221 223 229 255 304 327 342 356 373 407 431 435 438 453 458 498 566 568 583 585 696 736 743 750 753 767 794
6 12 19
6 12 714
6 12 19 313 431 511
6 12 243 307 413
6 12 19 193 203 397 699 726
6 12 19
6 12 19
6 19 235 356 435 487 495 561 562 564 710 713 726 743
6 12 19 209 412 703
6 19
6 12 19 692
6 12 19 665
6 19 435
6 12 19 249 303 410
6 19
6 12
6 12 19
6 12 19
6 12 19 190 372
6 230 575
6 12 19 512 712
6
6 12 19 470
6 12 19 418 458 567
6 12 19 458
6 19
6 12
6 12 19 709
6 12 19
6 19
6 12
6 12 19 217 380 475 566 573 703
6 12 19 573 703
6 19
6 12 19 784 801
6 12 19 463 650
6 19 235 356 435 473 532 713
6 12 19 219 327 369 532 756
6 12 19
6 12 19 532
6
6 12 19 524 556 573 703
6 12 19 203 217 380 418 458 548 601 699 735
6 19 363 524 703 715
6 12 19 340 371 435 458
6 12 19
6 12 19 444
6 458
6 12 19 208 223 430 518 556 557 566 644 703 726 736
6 384
6 230 544 799
6 12 19 726
6 12 19
6 12 330 343 513 598 599 643 694
6 12 19 300 351
6 12 19
6 12 19 283
6 19
6 12 19 307 336 430 524 601
6 12 194
6 12 19 213 340 458 524 703
6 12 19 726
6 12 19
6 12 19 617
6 19 345 398 697
6 12 19 320 323 369
6 19
6 12
6 12 19
6 12
6 19
6 19 411
6 12 19 502
6 12 330 343 513 578 599 643 694
6 12 330 343 513 578 598 643 694
6 12 19
6 12 19 203 425 435 458 487 567 583 654 691 702 708 791
6 19 458
6 12 19 223 232 315 396 437 480 631 677
6 19 350
6 19 201 473 688
6 12 19
6 12 19
6 19 703
6 204
6 12 19 465 480 677
6 12 19 628 730
6 12 19
6 12 19
6 19
6 458
6 12 19 364 678
6 12 19 588
6 12 279
6 19 318 458 466 517 690
6 12 19
6 19
6 12 19 669 738 754
6 12 19
6 800
6 12 19 211 236 262 435 496
6 19 359
6 12 19
6 12 135 611 914 981
6 19 340 458 703
6 12 19
6 12 19 315 480 603
6 647
6 12 19 181 808 853
6 12 19
6 12 19
6 12 19
6 12 19 726
6 19
6 12 19
6 12 19 284
6 12 19
6 12 19
6 12 19 343 513 578 598 599 694
6 12 19 573
6 12 19
6 12
6 193 203 293 305 632 752
6 12 19
6 12 19 388 464 481 508 727
6 463 560
6 19 304 493
6
6 12 19 424 677 761
6 12 19 601
6 19 155 478 703
6 12 19 672
6 12 19
6 12 19 396
6
6 12 19 237 458
6 12
6
6 12 19 504
6 471
6 12 19 536 712
6 12 19 427
6 12 19
6 275 281 772
6 12 19 223 622 738 754 771
6 19
6 12
6 12 19 656
6 12 19
6 12 19
6 19 434
6 12
6 12 19 465 480 495 603 610 653
6 12 19 461 462 488 616
6 12 19
6 12 19 220 743
6 19
6 19 346 414 470
6 371
6 12 19 328 361 467
6 355
6 12 19 238 246 301 802
6 705 726
6 12 19 201 473 605
6 691
6 12 19 466 517 619
6 12 19 384 601 689 695
6 12 19 535
6 12 254 453
6 7 12 18 19 343 513 578 598 599 643 836
6 12 19 330 338 691 700 732 781
6 12 19 524
6 12 19 269 398 589 753
6 12 19 518
6 12 203 223 418 529 567 703 726
6 12 19 695 732
6 12 19 284 383 400
6 12 19 367 601
6 12 19 155 213 221 223 255 263 267 289 305 308 309 320 356 397 407 418 435 438 454 458 471 472 475 478 479 483 487 489 495 533 556 557 566 568 573 585 608 629 655 699 726 727 728 732 735 736 743 753 754 767 774 791
6
6 12 687 796
6 12 19
6 12 19
6 12 19 601
6 12 552
6 12 532
6 19 362
6 12 19 305 488 545 665
6 19 235 532 561 726
6 12 526
6 19 568
6 276
6 12 19 224
6
6 12 19
6 196
6 509
6 12 19
6 12 19 435 783
6 12 19 203 305
6 12 19 271
6 223 239 267 293 299 368 397 449 454 475 504 505 529 532 573 576 586 637 687 699 703 713 743 750 770
6 19 649 703
6 703
6 12 19
6 12 19 396 458 611
6 19 303
6 19 338 475 695 700 703
6 12 19
6 12 19
6 12 19 567 703
6 12 19 524 573 703
6 12
6 12 19 622 669 754 771
6 12
6 12 401
6 12 19
6 19 805
6 12 19 199 299 327 336 524 532 680 703 726
6 19
6 12 19
6 12 19
6 143 363 369
6 12 19
6
6 12 19 524 726
6 19
6 647
6 12 19 524 697 703
6 12 19 254 300 366 435 622 669 703 738 771
6 12 19
6 12 19 562
6 12 19 384
6 12
6 12 19 440
6 12
6 12 19 424 495 653
6 19 385
6 12 19
6 12 19
6 363
6 12 19 217 380 384
6 12 19 402 524 703
6 19
6 19
6 12 19 335 368 449 726
6 12 19 669 738 754
6 19 275 300 668
6 12 19 392
6 12 19 217 318 340 380 458 493 703
6 12 19 320
6 12 19 360
6 12 19
6 12 19
6 12 19
6 12 19 257 477 840 844
6 12 19 695
6 12
6 12 19 495 723
6 12 19 559 801
6 12 19
6 12 19
6
6 12
6 12 19 322
6 12 19
6 12 19 601 703
6 12 19
6 12 19
6 12 19 524
6
6 12 203 705 854
6 12 245 307 310 455
6 139
6 12 19 575
6 12 19 472 521 624
6 19 515 559 784
7 686
7
7 813 824 841
7 471 742
7
7 349 480
7 8 633 819 852
7 8 146 147 151 152 183 188 817 854 861 870
7
7
7
7 804 824 841
7
7 8 9
7
7 18 146 147 151 152 183 187 188 809 854 865 870
7 829
7 8 15 808 852 853
7 8 15
7 823
7
7 419 821
7 804 813 841
7 175
7 835
7
7 8 389 833 835 871
7 818
7
7 74 223
7 8 15
7 8 345 389 395 828
7 15 16 92 152 175 864 870 876
7 175 826 828
7 8 15 276 694
7
7
7
7 780
7 804 813 824
7
7 396
7 257 780
7 8 9 147 151 306 849 854 865
7 8 867
7
7 14
7 146 147 151 183 185 306 845 854 861 865 875
7
7
8 808 819 853
8 633 819 852
8 18 22 144 146 147 151 152 175 176 181 183 187 188 306 796 809 817 845 849 858 861 863 864 865 869 870
8 864
8 864
8 868
8 854 861
8 349 396
8
8 146 147 176 178 181 188 809 849 854 858 865
8 867 877
8 854
8 834 854 855 856
8 147 151 152 183 187 188 306 817 845 849 854 861 870
8
8 846 862
8 857
8 854
9 15 22 144 146 147 151 152 183 188 809 817 834 854 865
9 828
9
9 879
9
9 18 849
9 834
9 862 880 902 967
9
9 873
10 877 889 902 910 926 932 942 943 944 947 959 967 969 973 977 998
10 882 884 895 928 969 971 981
10 881 884 912 916 928 940 966 971 976 985 993
10 26 911 938 939 975
10 135 881 882 885 896 947 960 969 993
10 135 884 890 893 895 901 917 940 969 981 984 994
10 920 921 935
10
10 963
10 880 907 910 932 947
10 885 914 917 971
10 898 920 921 935
10 903 933 935 944 952 959 962 976 992
10 885 895 901 917 924 940 967 969
10
10 881 885 893 917 940 969 981
10 884 914 924 963 994
10 926 942 973
10 891 903 921
10 979
10 916 931
10 885 893 963 969 981 994
10 877 880 928 967
10 892 898 904 920 921 933 935 948 949 959 962 965 984
10 903 920 921
10
10 920 921 942 980
10 889 947 998
10 917
10
10 880 889 921 932 942 943 945 947 973
10 883 938 939 942 975 980
10 882 993
10
10 628 890 896 971 994
10 959 962 979 984
10 882 900 931 971
10 885 890 893 895 908 940 966 969 981
10 921 938 944 947 992
10 249
10 886 891 903 904 906 921 935 938 942 972
10 886 891 898 903 904 906 910 918 920 927 935 947 972 977
10
10 942 972
10 893 896 945 960 963
10
10 880 897 942 943 947 956 973
10 921 933 938 939 942 952 972 975 979
10 135 881 882 902 969 971
10 942 947 972
10 961
10 900 916
10 880 889 910 942 943 947 973
10 892 903 927 935 948 952 959 962
10
10 886 891 892 903 920 921 933 962
10 942 956
10 13
10 883 911 918 920 927 939 942 952 965 975 976 979 992
10 883 911 927 938 952 975 979
10 882 885 893 895 917
10 185
10 880 897 906 910 911 920 923 926 927 929 932 936 938 943 944 947 956 965 972 973 975 992 998
10 880 910 926 932 942 947 965 973 984
10 880 892 918 942 952
10 910 924 968 969
10
10 880 884 889 907 910 918 921 926 929 932 942 943 969 972 973 988
10 903 933 965 984
10 903 959 982
10
10 966 969 981 993 994
10 892 927 933 938 939 944 962 972 979
10
10
10 976
10 926 936 942 973
10 95
10
10 880 892 903 915 933 949 962 972
10 135 884 924 963
10 930
10 892 903 915 933 935 952 959 965 984
10 135 888 896 901 924 960 981
10
10 903 938 942 943 948 962 984
10 882 917 951
10 877 880 893 902
10 945
10 135 880 881 884 885 893 895 901 917 928 945 947 951 981
10
10 881 882 890 914 916 928
10 920 921 923 927 929 942 947 952 959 979 988
10 880 897 910 926 932 942 943 947 956
10
10 26 883 911 927 938 939 942
10 180 882 892 938 955
10 880 921
10
10 899 915 927 938 939 952 972 984
10 906 911
10 628 881 885 895 901 917 951 963 969 993 994
10 949
10
10 885 903 915 943 948 962 965 979
10 882 993
10 988
10
10 947 972 986
10
10
10
10 892 918 938 942
10 882 884 912 951 981 985
10 885 896 901 914 951 981
10
10
10
10 880 907 942
10
